p tw 176 39601 2 
1 89 
1 92 
1 93 
1 95 
1 97 
1 99 
1 101 
1 104 
1 106 
1 108 
1 110 
1 111 
1 114 
1 115 
1 117 
1 120 
1 121 
1 124 
1 125 
1 128 
1 130 
1 132 
1 133 
1 135 
1 138 
1 140 
1 142 
1 144 
1 145 
1 147 
1 149 
1 151 
1 154 
1 155 
1 157 
1 160 
1 162 
1 164 
1 166 
1 168 
1 170 
1 171 
1 174 
1 175 
2 90 
2 91 
2 94 
2 96 
2 98 
2 100 
2 102 
2 103 
2 105 
2 107 
2 109 
2 112 
2 113 
2 116 
2 118 
2 119 
2 122 
2 123 
2 126 
2 127 
2 129 
2 131 
2 134 
2 136 
2 137 
2 139 
2 141 
2 143 
2 146 
2 148 
2 150 
2 152 
2 153 
2 156 
2 158 
2 159 
2 161 
2 163 
2 165 
2 167 
2 169 
2 172 
2 173 
2 176 
3 4 
3 89 
3 92 
3 94 
3 95 
3 97 
3 100 
3 101 
3 104 
3 105 
3 107 
3 110 
3 112 
3 114 
3 116 
3 118 
3 120 
3 121 
3 124 
3 126 
3 128 
3 129 
3 132 
3 133 
3 136 
3 137 
3 139 
3 142 
3 143 
3 145 
3 148 
3 150 
3 151 
3 154 
3 156 
3 157 
3 159 
3 162 
3 163 
3 165 
3 167 
3 169 
3 172 
3 174 
3 175 
4 90 
4 91 
4 93 
4 96 
4 98 
4 99 
4 102 
4 103 
4 106 
4 108 
4 109 
4 111 
4 113 
4 115 
4 117 
4 119 
4 122 
4 123 
4 125 
4 127 
4 130 
4 131 
4 134 
4 135 
4 138 
4 140 
4 141 
4 144 
4 146 
4 147 
4 149 
4 152 
4 153 
4 155 
4 158 
4 160 
4 161 
4 164 
4 166 
4 168 
4 170 
4 171 
4 173 
4 176 
5 6 
5 90 
5 91 
5 94 
5 95 
5 98 
5 99 
5 101 
5 104 
5 106 
5 107 
5 109 
5 111 
5 114 
5 116 
5 117 
5 120 
5 121 
5 123 
5 126 
5 127 
5 129 
5 131 
5 133 
5 136 
5 138 
5 140 
5 142 
5 144 
5 146 
5 147 
5 150 
5 152 
5 154 
5 156 
5 158 
5 160 
5 161 
5 164 
5 165 
5 167 
5 169 
5 171 
5 174 
5 175 
6 89 
6 92 
6 93 
6 96 
6 97 
6 100 
6 102 
6 103 
6 105 
6 108 
6 110 
6 112 
6 113 
6 115 
6 118 
6 119 
6 122 
6 124 
6 125 
6 128 
6 130 
6 132 
6 134 
6 135 
6 137 
6 139 
6 141 
6 143 
6 145 
6 148 
6 149 
6 151 
6 153 
6 155 
6 157 
6 159 
6 162 
6 163 
6 166 
6 168 
6 170 
6 172 
6 173 
6 176 
7 8 
7 90 
7 92 
7 94 
7 96 
7 97 
7 100 
7 102 
7 104 
7 106 
7 107 
7 110 
7 112 
7 114 
7 115 
7 117 
7 119 
7 122 
7 124 
7 126 
7 127 
7 130 
7 131 
7 133 
7 136 
7 138 
7 139 
7 141 
7 144 
7 145 
7 147 
7 150 
7 151 
7 153 
7 155 
7 158 
7 159 
7 161 
7 163 
7 166 
7 168 
7 169 
7 171 
7 174 
7 175 
8 89 
8 91 
8 93 
8 95 
8 98 
8 99 
8 101 
8 103 
8 105 
8 108 
8 109 
8 111 
8 113 
8 116 
8 118 
8 120 
8 121 
8 123 
8 125 
8 128 
8 129 
8 132 
8 134 
8 135 
8 137 
8 140 
8 142 
8 143 
8 146 
8 148 
8 149 
8 152 
8 154 
8 156 
8 157 
8 160 
8 162 
8 164 
8 165 
8 167 
8 170 
8 172 
8 173 
8 176 
9 10 
9 89 
9 91 
9 94 
9 96 
9 97 
9 99 
9 102 
9 104 
9 106 
9 107 
9 110 
9 112 
9 114 
9 116 
9 117 
9 120 
9 121 
9 123 
9 125 
9 127 
9 130 
9 132 
9 134 
9 136 
9 137 
9 140 
9 141 
9 144 
9 145 
9 148 
9 149 
9 152 
9 153 
9 156 
9 157 
9 159 
9 162 
9 164 
9 165 
9 168 
9 169 
9 171 
9 173 
9 176 
10 90 
10 92 
10 93 
10 95 
10 98 
10 100 
10 101 
10 103 
10 105 
10 108 
10 109 
10 111 
10 113 
10 115 
10 118 
10 119 
10 122 
10 124 
10 126 
10 128 
10 129 
10 131 
10 133 
10 135 
10 138 
10 139 
10 142 
10 143 
10 146 
10 147 
10 150 
10 151 
10 154 
10 155 
10 158 
10 160 
10 161 
10 163 
10 166 
10 167 
10 170 
10 172 
10 174 
10 175 
11 12 
11 90 
11 91 
11 94 
11 96 
11 97 
11 99 
11 101 
11 104 
11 105 
11 108 
11 110 
11 112 
11 114 
11 115 
11 118 
11 119 
11 121 
11 123 
11 125 
11 128 
11 129 
11 131 
11 133 
11 135 
11 138 
11 140 
11 141 
11 143 
11 146 
11 147 
11 150 
11 152 
11 153 
11 156 
11 157 
11 160 
11 162 
11 163 
11 166 
11 168 
11 169 
11 172 
11 174 
11 176 
12 89 
12 92 
12 93 
12 95 
12 98 
12 100 
12 102 
12 103 
12 106 
12 107 
12 109 
12 111 
12 113 
12 116 
12 117 
12 120 
12 122 
12 124 
12 126 
12 127 
12 130 
12 132 
12 134 
12 136 
12 137 
12 139 
12 142 
12 144 
12 145 
12 148 
12 149 
12 151 
12 154 
12 155 
12 158 
12 159 
12 161 
12 164 
12 165 
12 167 
12 170 
12 171 
12 173 
12 175 
13 14 
13 90 
13 92 
13 94 
13 95 
13 98 
13 100 
13 101 
13 104 
13 105 
13 107 
13 109 
13 112 
13 114 
13 115 
13 118 
13 120 
13 122 
13 124 
13 126 
13 127 
13 129 
13 131 
13 134 
13 135 
13 137 
13 140 
13 141 
13 144 
13 145 
13 147 
13 149 
13 152 
13 153 
13 155 
13 157 
13 160 
13 162 
13 164 
13 165 
13 168 
13 170 
13 172 
13 173 
13 175 
14 89 
14 91 
14 93 
14 96 
14 97 
14 99 
14 102 
14 103 
14 106 
14 108 
14 110 
14 111 
14 113 
14 116 
14 117 
14 119 
14 121 
14 123 
14 125 
14 128 
14 130 
14 132 
14 133 
14 136 
14 138 
14 139 
14 142 
14 143 
14 146 
14 148 
14 150 
14 151 
14 154 
14 156 
14 158 
14 159 
14 161 
14 163 
14 166 
14 167 
14 169 
14 171 
14 174 
14 176 
15 16 
15 90 
15 92 
15 94 
15 95 
15 98 
15 99 
15 101 
15 104 
15 105 
15 108 
15 110 
15 112 
15 114 
15 116 
15 117 
15 119 
15 122 
15 124 
15 125 
15 127 
15 129 
15 132 
15 133 
15 135 
15 138 
15 139 
15 141 
15 143 
15 145 
15 148 
15 149 
15 152 
15 154 
15 156 
15 158 
15 159 
15 161 
15 164 
15 166 
15 167 
15 170 
15 171 
15 173 
15 176 
16 89 
16 91 
16 93 
16 96 
16 97 
16 100 
16 102 
16 103 
16 106 
16 107 
16 109 
16 111 
16 113 
16 115 
16 118 
16 120 
16 121 
16 123 
16 126 
16 128 
16 130 
16 131 
16 134 
16 136 
16 137 
16 140 
16 142 
16 144 
16 146 
16 147 
16 150 
16 151 
16 153 
16 155 
16 157 
16 160 
16 162 
16 163 
16 165 
16 168 
16 169 
16 172 
16 174 
16 175 
17 18 
17 89 
17 91 
17 93 
17 95 
17 97 
17 100 
17 102 
17 104 
17 105 
17 108 
17 109 
17 112 
17 114 
17 115 
17 117 
17 120 
17 122 
17 123 
17 125 
17 128 
17 129 
17 131 
17 133 
17 136 
17 137 
17 140 
17 141 
17 144 
17 146 
17 148 
17 150 
17 151 
17 154 
17 156 
17 158 
17 159 
17 161 
17 164 
17 166 
17 168 
17 170 
17 172 
17 173 
17 175 
18 90 
18 92 
18 94 
18 96 
18 98 
18 99 
18 101 
18 103 
18 106 
18 107 
18 110 
18 111 
18 113 
18 116 
18 118 
18 119 
18 121 
18 124 
18 126 
18 127 
18 130 
18 132 
18 134 
18 135 
18 138 
18 139 
18 142 
18 143 
18 145 
18 147 
18 149 
18 152 
18 153 
18 155 
18 157 
18 160 
18 162 
18 163 
18 165 
18 167 
18 169 
18 171 
18 174 
18 176 
19 20 
19 90 
19 91 
19 93 
19 95 
19 97 
19 99 
19 102 
19 104 
19 105 
19 107 
19 109 
19 112 
19 114 
19 116 
19 117 
19 119 
19 121 
19 124 
19 125 
19 128 
19 130 
19 131 
19 134 
19 135 
19 137 
19 139 
19 141 
19 143 
19 146 
19 147 
19 149 
19 151 
19 154 
19 155 
19 157 
19 160 
19 161 
19 163 
19 165 
19 167 
19 169 
19 171 
19 173 
19 175 
20 89 
20 92 
20 94 
20 96 
20 98 
20 100 
20 101 
20 103 
20 106 
20 108 
20 110 
20 111 
20 113 
20 115 
20 118 
20 120 
20 122 
20 123 
20 126 
20 127 
20 129 
20 132 
20 133 
20 136 
20 138 
20 140 
20 142 
20 144 
20 145 
20 148 
20 150 
20 152 
20 153 
20 156 
20 158 
20 159 
20 162 
20 164 
20 166 
20 168 
20 170 
20 172 
20 174 
20 176 
21 22 
21 89 
21 92 
21 93 
21 95 
21 98 
21 99 
21 102 
21 104 
21 105 
21 108 
21 110 
21 111 
21 114 
21 115 
21 117 
21 119 
21 121 
21 124 
21 126 
21 127 
21 129 
21 132 
21 134 
21 136 
21 138 
21 140 
21 141 
21 144 
21 146 
21 148 
21 150 
21 151 
21 153 
21 155 
21 158 
21 160 
21 162 
21 163 
21 165 
21 167 
21 169 
21 172 
21 173 
21 176 
22 90 
22 91 
22 94 
22 96 
22 97 
22 100 
22 101 
22 103 
22 106 
22 107 
22 109 
22 112 
22 113 
22 116 
22 118 
22 120 
22 122 
22 123 
22 125 
22 128 
22 130 
22 131 
22 133 
22 135 
22 137 
22 139 
22 142 
22 143 
22 145 
22 147 
22 149 
22 152 
22 154 
22 156 
22 157 
22 159 
22 161 
22 164 
22 166 
22 168 
22 170 
22 171 
22 174 
22 175 
23 24 
23 89 
23 91 
23 94 
23 95 
23 97 
23 100 
23 102 
23 103 
23 106 
23 108 
23 109 
23 111 
23 114 
23 116 
23 118 
23 119 
23 122 
23 124 
23 125 
23 127 
23 129 
23 131 
23 134 
23 136 
23 138 
23 139 
23 141 
23 144 
23 145 
23 147 
23 149 
23 151 
23 154 
23 156 
23 157 
23 160 
23 162 
23 164 
23 166 
23 167 
23 169 
23 172 
23 174 
23 176 
24 90 
24 92 
24 93 
24 96 
24 98 
24 99 
24 101 
24 104 
24 105 
24 107 
24 110 
24 112 
24 113 
24 115 
24 117 
24 120 
24 121 
24 123 
24 126 
24 128 
24 130 
24 132 
24 133 
24 135 
24 137 
24 140 
24 142 
24 143 
24 146 
24 148 
24 150 
24 152 
24 153 
24 155 
24 158 
24 159 
24 161 
24 163 
24 165 
24 168 
24 170 
24 171 
24 173 
24 175 
25 26 
25 90 
25 92 
25 93 
25 96 
25 97 
25 100 
25 102 
25 104 
25 105 
25 108 
25 110 
25 112 
25 113 
25 116 
25 118 
25 120 
25 122 
25 124 
25 126 
25 128 
25 130 
25 132 
25 134 
25 136 
25 138 
25 140 
25 141 
25 144 
25 146 
25 147 
25 150 
25 152 
25 154 
25 156 
25 157 
25 160 
25 161 
25 164 
25 165 
25 167 
25 170 
25 171 
25 174 
25 176 
26 89 
26 91 
26 94 
26 95 
26 98 
26 99 
26 101 
26 103 
26 106 
26 107 
26 109 
26 111 
26 114 
26 115 
26 117 
26 119 
26 121 
26 123 
26 125 
26 127 
26 129 
26 131 
26 133 
26 135 
26 137 
26 139 
26 142 
26 143 
26 145 
26 148 
26 149 
26 151 
26 153 
26 155 
26 158 
26 159 
26 162 
26 163 
26 166 
26 168 
26 169 
26 172 
26 173 
26 175 
27 28 
27 89 
27 91 
27 94 
27 96 
27 98 
27 100 
27 101 
27 104 
27 105 
27 107 
27 110 
27 111 
27 113 
27 116 
27 117 
27 119 
27 122 
27 124 
27 125 
27 128 
27 129 
27 132 
27 134 
27 136 
27 138 
27 140 
27 142 
27 144 
27 146 
27 147 
27 149 
27 152 
27 154 
27 155 
27 157 
27 159 
27 161 
27 163 
27 166 
27 168 
27 169 
27 172 
27 173 
27 175 
28 90 
28 92 
28 93 
28 95 
28 97 
28 99 
28 102 
28 103 
28 106 
28 108 
28 109 
28 112 
28 114 
28 115 
28 118 
28 120 
28 121 
28 123 
28 126 
28 127 
28 130 
28 131 
28 133 
28 135 
28 137 
28 139 
28 141 
28 143 
28 145 
28 148 
28 150 
28 151 
28 153 
28 156 
28 158 
28 160 
28 162 
28 164 
28 165 
28 167 
28 170 
28 171 
28 174 
28 176 
29 30 
29 90 
29 91 
29 94 
29 95 
29 97 
29 99 
29 101 
29 103 
29 106 
29 108 
29 109 
29 111 
29 114 
29 116 
29 118 
29 119 
29 122 
29 124 
29 126 
29 128 
29 130 
29 132 
29 133 
29 136 
29 137 
29 140 
29 141 
29 144 
29 146 
29 148 
29 150 
29 152 
29 153 
29 155 
29 157 
29 159 
29 162 
29 163 
29 166 
29 167 
29 170 
29 171 
29 173 
29 175 
30 89 
30 92 
30 93 
30 96 
30 98 
30 100 
30 102 
30 104 
30 105 
30 107 
30 110 
30 112 
30 113 
30 115 
30 117 
30 120 
30 121 
30 123 
30 125 
30 127 
30 129 
30 131 
30 134 
30 135 
30 138 
30 139 
30 142 
30 143 
30 145 
30 147 
30 149 
30 151 
30 154 
30 156 
30 158 
30 160 
30 161 
30 164 
30 165 
30 168 
30 169 
30 172 
30 174 
30 176 
31 32 
31 90 
31 91 
31 93 
31 96 
31 98 
31 99 
31 102 
31 103 
31 105 
31 108 
31 110 
31 111 
31 114 
31 115 
31 117 
31 119 
31 122 
31 124 
31 126 
31 128 
31 129 
31 131 
31 134 
31 135 
31 137 
31 139 
31 142 
31 144 
31 145 
31 148 
31 150 
31 152 
31 154 
31 156 
31 157 
31 159 
31 162 
31 164 
31 165 
31 168 
31 169 
31 171 
31 174 
31 175 
32 89 
32 92 
32 94 
32 95 
32 97 
32 100 
32 101 
32 104 
32 106 
32 107 
32 109 
32 112 
32 113 
32 116 
32 118 
32 120 
32 121 
32 123 
32 125 
32 127 
32 130 
32 132 
32 133 
32 136 
32 138 
32 140 
32 141 
32 143 
32 146 
32 147 
32 149 
32 151 
32 153 
32 155 
32 158 
32 160 
32 161 
32 163 
32 166 
32 167 
32 170 
32 172 
32 173 
32 176 
33 34 
33 89 
33 92 
33 94 
33 96 
33 98 
33 99 
33 102 
33 104 
33 106 
33 107 
33 109 
33 111 
33 114 
33 115 
33 118 
33 119 
33 122 
33 124 
33 125 
33 128 
33 129 
33 132 
33 133 
33 136 
33 137 
33 139 
33 142 
33 143 
33 146 
33 147 
33 150 
33 151 
33 153 
33 156 
33 157 
33 160 
33 161 
33 164 
33 165 
33 168 
33 170 
33 171 
33 173 
33 176 
34 90 
34 91 
34 93 
34 95 
34 97 
34 100 
34 101 
34 103 
34 105 
34 108 
34 110 
34 112 
34 113 
34 116 
34 117 
34 120 
34 121 
34 123 
34 126 
34 127 
34 130 
34 131 
34 134 
34 135 
34 138 
34 140 
34 141 
34 144 
34 145 
34 148 
34 149 
34 152 
34 154 
34 155 
34 158 
34 159 
34 162 
34 163 
34 166 
34 167 
34 169 
34 172 
34 174 
34 175 
35 36 
35 90 
35 91 
35 93 
35 95 
35 98 
35 100 
35 101 
35 104 
35 106 
35 108 
35 109 
35 112 
35 113 
35 116 
35 117 
35 119 
35 122 
35 124 
35 125 
35 127 
35 130 
35 132 
35 133 
35 135 
35 137 
35 140 
35 142 
35 144 
35 145 
35 148 
35 150 
35 151 
35 153 
35 156 
35 157 
35 160 
35 161 
35 163 
35 165 
35 168 
35 169 
35 172 
35 174 
35 176 
36 89 
36 92 
36 94 
36 96 
36 97 
36 99 
36 102 
36 103 
36 105 
36 107 
36 110 
36 111 
36 114 
36 115 
36 118 
36 120 
36 121 
36 123 
36 126 
36 128 
36 129 
36 131 
36 134 
36 136 
36 138 
36 139 
36 141 
36 143 
36 146 
36 147 
36 149 
36 152 
36 154 
36 155 
36 158 
36 159 
36 162 
36 164 
36 166 
36 167 
36 170 
36 171 
36 173 
36 175 
37 38 
37 89 
37 91 
37 93 
37 96 
37 98 
37 100 
37 101 
37 103 
37 105 
37 107 
37 109 
37 112 
37 114 
37 115 
37 118 
37 119 
37 121 
37 124 
37 125 
37 127 
37 130 
37 132 
37 133 
37 136 
37 138 
37 139 
37 141 
37 144 
37 146 
37 148 
37 149 
37 152 
37 154 
37 156 
37 158 
37 160 
37 162 
37 163 
37 165 
37 168 
37 170 
37 171 
37 174 
37 175 
38 90 
38 92 
38 94 
38 95 
38 97 
38 99 
38 102 
38 104 
38 106 
38 108 
38 110 
38 111 
38 113 
38 116 
38 117 
38 120 
38 122 
38 123 
38 126 
38 128 
38 129 
38 131 
38 134 
38 135 
38 137 
38 140 
38 142 
38 143 
38 145 
38 147 
38 150 
38 151 
38 153 
38 155 
38 157 
38 159 
38 161 
38 164 
38 166 
38 167 
38 169 
38 172 
38 173 
38 176 
39 40 
39 89 
39 92 
39 93 
39 96 
39 97 
39 99 
39 101 
39 104 
39 105 
39 107 
39 109 
39 111 
39 114 
39 116 
39 117 
39 120 
39 122 
39 124 
39 125 
39 127 
39 130 
39 131 
39 134 
39 135 
39 137 
39 139 
39 142 
39 144 
39 146 
39 147 
39 150 
39 152 
39 153 
39 156 
39 158 
39 159 
39 162 
39 163 
39 166 
39 167 
39 170 
39 172 
39 174 
39 176 
40 90 
40 91 
40 94 
40 95 
40 98 
40 100 
40 102 
40 103 
40 106 
40 108 
40 110 
40 112 
40 113 
40 115 
40 118 
40 119 
40 121 
40 123 
40 126 
40 128 
40 129 
40 132 
40 133 
40 136 
40 138 
40 140 
40 141 
40 143 
40 145 
40 148 
40 149 
40 151 
40 154 
40 155 
40 157 
40 160 
40 161 
40 164 
40 165 
40 168 
40 169 
40 171 
40 173 
40 175 
41 42 
41 89 
41 91 
41 94 
41 96 
41 97 
41 99 
41 101 
41 103 
41 105 
41 108 
41 109 
41 112 
41 114 
41 116 
41 117 
41 120 
41 122 
41 124 
41 126 
41 128 
41 129 
41 131 
41 134 
41 136 
41 138 
41 140 
41 142 
41 143 
41 145 
41 148 
41 149 
41 151 
41 153 
41 155 
41 158 
41 160 
41 161 
41 163 
41 165 
41 168 
41 170 
41 171 
41 174 
41 176 
42 90 
42 92 
42 93 
42 95 
42 98 
42 100 
42 102 
42 104 
42 106 
42 107 
42 110 
42 111 
42 113 
42 115 
42 118 
42 119 
42 121 
42 123 
42 125 
42 127 
42 130 
42 132 
42 133 
42 135 
42 137 
42 139 
42 141 
42 144 
42 146 
42 147 
42 150 
42 152 
42 154 
42 156 
42 157 
42 159 
42 162 
42 164 
42 166 
42 167 
42 169 
42 172 
42 173 
42 175 
43 44 
43 90 
43 92 
43 94 
43 95 
43 98 
43 100 
43 102 
43 103 
43 106 
43 107 
43 110 
43 112 
43 114 
43 116 
43 117 
43 119 
43 121 
43 124 
43 125 
43 128 
43 130 
43 131 
43 134 
43 136 
43 137 
43 140 
43 142 
43 143 
43 146 
43 148 
43 150 
43 152 
43 154 
43 155 
43 158 
43 160 
43 162 
43 164 
43 166 
43 168 
43 170 
43 172 
43 174 
43 176 
44 89 
44 91 
44 93 
44 96 
44 97 
44 99 
44 101 
44 104 
44 105 
44 108 
44 109 
44 111 
44 113 
44 115 
44 118 
44 120 
44 122 
44 123 
44 126 
44 127 
44 129 
44 132 
44 133 
44 135 
44 138 
44 139 
44 141 
44 144 
44 145 
44 147 
44 149 
44 151 
44 153 
44 156 
44 157 
44 159 
44 161 
44 163 
44 165 
44 167 
44 169 
44 171 
44 173 
44 175 
45 46 
45 90 
45 92 
45 93 
45 96 
45 97 
45 100 
45 101 
45 104 
45 106 
45 108 
45 109 
45 111 
45 114 
45 115 
45 118 
45 119 
45 121 
45 124 
45 125 
45 128 
45 130 
45 131 
45 134 
45 136 
45 138 
45 140 
45 142 
45 143 
45 145 
45 148 
45 149 
45 152 
45 153 
45 156 
45 158 
45 159 
45 161 
45 164 
45 165 
45 167 
45 169 
45 172 
45 173 
45 175 
46 89 
46 91 
46 94 
46 95 
46 98 
46 99 
46 102 
46 103 
46 105 
46 107 
46 110 
46 112 
46 113 
46 116 
46 117 
46 120 
46 122 
46 123 
46 126 
46 127 
46 129 
46 132 
46 133 
46 135 
46 137 
46 139 
46 141 
46 144 
46 146 
46 147 
46 150 
46 151 
46 154 
46 155 
46 157 
46 160 
46 162 
46 163 
46 166 
46 168 
46 170 
46 171 
46 174 
46 176 
47 48 
47 89 
47 91 
47 94 
47 96 
47 98 
47 99 
47 102 
47 104 
47 105 
47 107 
47 110 
47 111 
47 113 
47 116 
47 118 
47 119 
47 121 
47 124 
47 126 
47 128 
47 130 
47 131 
47 133 
47 135 
47 137 
47 140 
47 141 
47 144 
47 145 
47 148 
47 149 
47 151 
47 153 
47 156 
47 158 
47 160 
47 161 
47 164 
47 166 
47 167 
47 170 
47 172 
47 174 
47 175 
48 90 
48 92 
48 93 
48 95 
48 97 
48 100 
48 101 
48 103 
48 106 
48 108 
48 109 
48 112 
48 114 
48 115 
48 117 
48 120 
48 122 
48 123 
48 125 
48 127 
48 129 
48 132 
48 134 
48 136 
48 138 
48 139 
48 142 
48 143 
48 146 
48 147 
48 150 
48 152 
48 154 
48 155 
48 157 
48 159 
48 162 
48 163 
48 165 
48 168 
48 169 
48 171 
48 173 
48 176 
49 50 
49 90 
49 91 
49 93 
49 95 
49 98 
49 99 
49 102 
49 104 
49 106 
49 107 
49 110 
49 112 
49 113 
49 115 
49 118 
49 120 
49 122 
49 124 
49 125 
49 127 
49 129 
49 131 
49 134 
49 136 
49 138 
49 140 
49 142 
49 143 
49 146 
49 148 
49 149 
49 151 
49 153 
49 156 
49 157 
49 159 
49 162 
49 163 
49 166 
49 167 
49 170 
49 171 
49 174 
49 175 
50 89 
50 92 
50 94 
50 96 
50 97 
50 100 
50 101 
50 103 
50 105 
50 108 
50 109 
50 111 
50 114 
50 116 
50 117 
50 119 
50 121 
50 123 
50 126 
50 128 
50 130 
50 132 
50 133 
50 135 
50 137 
50 139 
50 141 
50 144 
50 145 
50 147 
50 150 
50 152 
50 154 
50 155 
50 158 
50 160 
50 161 
50 164 
50 165 
50 168 
50 169 
50 172 
50 173 
50 176 
51 52 
51 89 
51 91 
51 94 
51 96 
51 97 
51 100 
51 102 
51 104 
51 106 
51 108 
51 109 
51 112 
51 113 
51 115 
51 117 
51 119 
51 121 
51 124 
51 126 
51 127 
51 129 
51 132 
51 134 
51 135 
51 137 
51 140 
51 142 
51 143 
51 145 
51 147 
51 150 
51 152 
51 154 
51 156 
51 158 
51 160 
51 162 
51 163 
51 166 
51 167 
51 170 
51 171 
51 173 
51 175 
52 90 
52 92 
52 93 
52 95 
52 98 
52 99 
52 101 
52 103 
52 105 
52 107 
52 110 
52 111 
52 114 
52 116 
52 118 
52 120 
52 122 
52 123 
52 125 
52 128 
52 130 
52 131 
52 133 
52 136 
52 138 
52 139 
52 141 
52 144 
52 146 
52 148 
52 149 
52 151 
52 153 
52 155 
52 157 
52 159 
52 161 
52 164 
52 165 
52 168 
52 169 
52 172 
52 174 
52 176 
53 54 
53 90 
53 91 
53 94 
53 95 
53 98 
53 100 
53 101 
53 104 
53 105 
53 108 
53 109 
53 111 
53 113 
53 115 
53 117 
53 120 
53 121 
53 124 
53 126 
53 128 
53 130 
53 132 
53 134 
53 136 
53 137 
53 139 
53 141 
53 143 
53 146 
53 147 
53 149 
53 151 
53 153 
53 156 
53 158 
53 159 
53 162 
53 164 
53 166 
53 168 
53 169 
53 171 
53 174 
53 176 
54 89 
54 92 
54 93 
54 96 
54 97 
54 99 
54 102 
54 103 
54 106 
54 107 
54 110 
54 112 
54 114 
54 116 
54 118 
54 119 
54 122 
54 123 
54 125 
54 127 
54 129 
54 131 
54 133 
54 135 
54 138 
54 140 
54 142 
54 144 
54 145 
54 148 
54 150 
54 152 
54 154 
54 155 
54 157 
54 160 
54 161 
54 163 
54 165 
54 167 
54 170 
54 172 
54 173 
54 175 
55 56 
55 90 
55 91 
55 93 
55 96 
55 98 
55 100 
55 102 
55 104 
55 106 
55 108 
55 110 
55 111 
55 114 
55 116 
55 117 
55 120 
55 122 
55 123 
55 125 
55 128 
55 129 
55 132 
55 133 
55 136 
55 137 
55 139 
55 141 
55 143 
55 145 
55 147 
55 149 
55 152 
55 153 
55 155 
55 158 
55 160 
55 162 
55 163 
55 165 
55 167 
55 170 
55 172 
55 174 
55 175 
56 89 
56 92 
56 94 
56 95 
56 97 
56 99 
56 101 
56 103 
56 105 
56 107 
56 109 
56 112 
56 113 
56 115 
56 118 
56 119 
56 121 
56 124 
56 126 
56 127 
56 130 
56 131 
56 134 
56 135 
56 138 
56 140 
56 142 
56 144 
56 146 
56 148 
56 150 
56 151 
56 154 
56 156 
56 157 
56 159 
56 161 
56 164 
56 166 
56 168 
56 169 
56 171 
56 173 
56 176 
57 58 
57 89 
57 91 
57 94 
57 95 
57 97 
57 100 
57 102 
57 104 
57 105 
57 108 
57 110 
57 111 
57 113 
57 116 
57 118 
57 120 
57 122 
57 124 
57 125 
57 127 
57 130 
57 131 
57 133 
57 135 
57 138 
57 139 
57 142 
57 143 
57 146 
57 148 
57 150 
57 152 
57 153 
57 155 
57 158 
57 160 
57 162 
57 164 
57 165 
57 168 
57 169 
57 171 
57 173 
57 175 
58 90 
58 92 
58 93 
58 96 
58 98 
58 99 
58 101 
58 103 
58 106 
58 107 
58 109 
58 112 
58 114 
58 115 
58 117 
58 119 
58 121 
58 123 
58 126 
58 128 
58 129 
58 132 
58 134 
58 136 
58 137 
58 140 
58 141 
58 144 
58 145 
58 147 
58 149 
58 151 
58 154 
58 156 
58 157 
58 159 
58 161 
58 163 
58 166 
58 167 
58 170 
58 172 
58 174 
58 176 
59 60 
59 90 
59 91 
59 93 
59 96 
59 97 
59 100 
59 101 
59 103 
59 106 
59 107 
59 110 
59 111 
59 114 
59 116 
59 117 
59 120 
59 121 
59 124 
59 126 
59 127 
59 129 
59 132 
59 134 
59 135 
59 138 
59 139 
59 141 
59 143 
59 146 
59 148 
59 150 
59 151 
59 153 
59 156 
59 157 
59 160 
59 161 
59 164 
59 166 
59 168 
59 170 
59 172 
59 173 
59 175 
60 89 
60 92 
60 94 
60 95 
60 98 
60 99 
60 102 
60 104 
60 105 
60 108 
60 109 
60 112 
60 113 
60 115 
60 118 
60 119 
60 122 
60 123 
60 125 
60 128 
60 130 
60 131 
60 133 
60 136 
60 137 
60 140 
60 142 
60 144 
60 145 
60 147 
60 149 
60 152 
60 154 
60 155 
60 158 
60 159 
60 162 
60 163 
60 165 
60 167 
60 169 
60 171 
60 174 
60 176 
61 62 
61 90 
61 91 
61 94 
61 95 
61 97 
61 99 
61 102 
61 104 
61 106 
61 107 
61 109 
61 111 
61 113 
61 115 
61 118 
61 120 
61 121 
61 124 
61 125 
61 128 
61 129 
61 132 
61 134 
61 135 
61 138 
61 139 
61 141 
61 144 
61 145 
61 148 
61 150 
61 152 
61 154 
61 155 
61 158 
61 159 
61 161 
61 163 
61 165 
61 168 
61 170 
61 172 
61 174 
61 176 
62 89 
62 92 
62 93 
62 96 
62 98 
62 100 
62 101 
62 103 
62 105 
62 108 
62 110 
62 112 
62 114 
62 116 
62 117 
62 119 
62 122 
62 123 
62 126 
62 127 
62 130 
62 131 
62 133 
62 136 
62 137 
62 140 
62 142 
62 143 
62 146 
62 147 
62 149 
62 151 
62 153 
62 156 
62 157 
62 160 
62 162 
62 164 
62 166 
62 167 
62 169 
62 171 
62 173 
62 175 
63 64 
63 90 
63 91 
63 93 
63 96 
63 98 
63 100 
63 102 
63 103 
63 105 
63 107 
63 109 
63 112 
63 114 
63 116 
63 118 
63 120 
63 121 
63 124 
63 125 
63 128 
63 129 
63 132 
63 133 
63 135 
63 138 
63 140 
63 142 
63 144 
63 145 
63 147 
63 150 
63 151 
63 153 
63 155 
63 158 
63 159 
63 162 
63 164 
63 166 
63 167 
63 169 
63 171 
63 173 
63 176 
64 89 
64 92 
64 94 
64 95 
64 97 
64 99 
64 101 
64 104 
64 106 
64 108 
64 110 
64 111 
64 113 
64 115 
64 117 
64 119 
64 122 
64 123 
64 126 
64 127 
64 130 
64 131 
64 134 
64 136 
64 137 
64 139 
64 141 
64 143 
64 146 
64 148 
64 149 
64 152 
64 154 
64 156 
64 157 
64 160 
64 161 
64 163 
64 165 
64 168 
64 170 
64 172 
64 174 
64 175 
65 66 
65 90 
65 92 
65 94 
65 96 
65 98 
65 99 
65 102 
65 104 
65 106 
65 108 
65 109 
65 112 
65 114 
65 116 
65 118 
65 120 
65 122 
65 123 
65 126 
65 128 
65 130 
65 132 
65 134 
65 135 
65 138 
65 139 
65 142 
65 144 
65 146 
65 148 
65 149 
65 151 
65 154 
65 156 
65 158 
65 160 
65 162 
65 163 
65 166 
65 168 
65 169 
65 172 
65 173 
65 175 
66 89 
66 91 
66 93 
66 95 
66 97 
66 100 
66 101 
66 103 
66 105 
66 107 
66 110 
66 111 
66 113 
66 115 
66 117 
66 119 
66 121 
66 124 
66 125 
66 127 
66 129 
66 131 
66 133 
66 136 
66 137 
66 140 
66 141 
66 143 
66 145 
66 147 
66 150 
66 152 
66 153 
66 155 
66 157 
66 159 
66 161 
66 164 
66 165 
66 167 
66 170 
66 171 
66 174 
66 176 
67 68 
67 89 
67 91 
67 94 
67 95 
67 98 
67 100 
67 102 
67 103 
67 106 
67 108 
67 110 
67 112 
67 114 
67 115 
67 117 
67 120 
67 121 
67 124 
67 126 
67 128 
67 130 
67 131 
67 133 
67 135 
67 138 
67 139 
67 142 
67 144 
67 146 
67 147 
67 149 
67 152 
67 153 
67 156 
67 157 
67 159 
67 161 
67 163 
67 165 
67 167 
67 170 
67 172 
67 173 
67 176 
68 90 
68 92 
68 93 
68 96 
68 97 
68 99 
68 101 
68 104 
68 105 
68 107 
68 109 
68 111 
68 113 
68 116 
68 118 
68 119 
68 122 
68 123 
68 125 
68 127 
68 129 
68 132 
68 134 
68 136 
68 137 
68 140 
68 141 
68 143 
68 145 
68 148 
68 150 
68 151 
68 154 
68 155 
68 158 
68 160 
68 162 
68 164 
68 166 
68 168 
68 169 
68 171 
68 174 
68 175 
69 70 
69 89 
69 91 
69 93 
69 95 
69 98 
69 100 
69 101 
69 104 
69 106 
69 107 
69 110 
69 111 
69 114 
69 116 
69 118 
69 119 
69 122 
69 123 
69 126 
69 128 
69 130 
69 131 
69 134 
69 135 
69 138 
69 140 
69 141 
69 143 
69 145 
69 147 
69 150 
69 151 
69 154 
69 156 
69 158 
69 159 
69 162 
69 163 
69 165 
69 168 
69 170 
69 171 
69 173 
69 176 
70 90 
70 92 
70 94 
70 96 
70 97 
70 99 
70 102 
70 103 
70 105 
70 108 
70 109 
70 112 
70 113 
70 115 
70 117 
70 120 
70 121 
70 124 
70 125 
70 127 
70 129 
70 132 
70 133 
70 136 
70 137 
70 139 
70 142 
70 144 
70 146 
70 148 
70 149 
70 152 
70 153 
70 155 
70 157 
70 160 
70 161 
70 164 
70 166 
70 167 
70 169 
70 172 
70 174 
70 175 
71 72 
71 90 
71 91 
71 93 
71 96 
71 97 
71 99 
71 101 
71 104 
71 106 
71 108 
71 110 
71 112 
71 113 
71 116 
71 118 
71 119 
71 121 
71 124 
71 126 
71 127 
71 129 
71 131 
71 133 
71 136 
71 137 
71 139 
71 142 
71 144 
71 146 
71 147 
71 149 
71 151 
71 154 
71 155 
71 158 
71 159 
71 162 
71 164 
71 165 
71 168 
71 170 
71 172 
71 173 
71 176 
72 89 
72 92 
72 94 
72 95 
72 98 
72 100 
72 102 
72 103 
72 105 
72 107 
72 109 
72 111 
72 114 
72 115 
72 117 
72 120 
72 122 
72 123 
72 125 
72 128 
72 130 
72 132 
72 134 
72 135 
72 138 
72 140 
72 141 
72 143 
72 145 
72 148 
72 150 
72 152 
72 153 
72 156 
72 157 
72 160 
72 161 
72 163 
72 166 
72 167 
72 169 
72 171 
72 174 
72 175 
73 74 
73 89 
73 91 
73 93 
73 96 
73 98 
73 99 
73 101 
73 104 
73 106 
73 107 
73 109 
73 112 
73 113 
73 115 
73 117 
73 120 
73 122 
73 124 
73 126 
73 128 
73 130 
73 131 
73 133 
73 136 
73 138 
73 139 
73 141 
73 143 
73 145 
73 148 
73 150 
73 152 
73 154 
73 155 
73 157 
73 160 
73 162 
73 164 
73 166 
73 167 
73 169 
73 172 
73 173 
73 176 
74 90 
74 92 
74 94 
74 95 
74 97 
74 100 
74 102 
74 103 
74 105 
74 108 
74 110 
74 111 
74 114 
74 116 
74 118 
74 119 
74 121 
74 123 
74 125 
74 127 
74 129 
74 132 
74 134 
74 135 
74 137 
74 140 
74 142 
74 144 
74 146 
74 147 
74 149 
74 151 
74 153 
74 156 
74 158 
74 159 
74 161 
74 163 
74 165 
74 168 
74 170 
74 171 
74 174 
74 175 
75 76 
75 89 
75 91 
75 93 
75 95 
75 98 
75 99 
75 102 
75 104 
75 105 
75 108 
75 109 
75 112 
75 114 
75 116 
75 118 
75 119 
75 121 
75 123 
75 126 
75 127 
75 130 
75 132 
75 134 
75 136 
75 138 
75 139 
75 142 
75 143 
75 145 
75 147 
75 150 
75 152 
75 153 
75 155 
75 157 
75 159 
75 161 
75 164 
75 166 
75 168 
75 170 
75 172 
75 174 
75 175 
76 90 
76 92 
76 94 
76 96 
76 97 
76 100 
76 101 
76 103 
76 106 
76 107 
76 110 
76 111 
76 113 
76 115 
76 117 
76 120 
76 122 
76 124 
76 125 
76 128 
76 129 
76 131 
76 133 
76 135 
76 137 
76 140 
76 141 
76 144 
76 146 
76 148 
76 149 
76 151 
76 154 
76 156 
76 158 
76 160 
76 162 
76 163 
76 165 
76 167 
76 169 
76 171 
76 173 
76 176 
77 78 
77 89 
77 91 
77 94 
77 96 
77 98 
77 99 
77 101 
77 103 
77 106 
77 108 
77 110 
77 112 
77 114 
77 115 
77 118 
77 120 
77 122 
77 124 
77 125 
77 127 
77 130 
77 132 
77 134 
77 135 
77 137 
77 140 
77 141 
77 143 
77 146 
77 147 
77 150 
77 151 
77 154 
77 155 
77 158 
77 159 
77 161 
77 164 
77 165 
77 167 
77 169 
77 172 
77 174 
77 175 
78 90 
78 92 
78 93 
78 95 
78 97 
78 100 
78 102 
78 104 
78 105 
78 107 
78 109 
78 111 
78 113 
78 116 
78 117 
78 119 
78 121 
78 123 
78 126 
78 128 
78 129 
78 131 
78 133 
78 136 
78 138 
78 139 
78 142 
78 144 
78 145 
78 148 
78 149 
78 152 
78 153 
78 156 
78 157 
78 160 
78 162 
78 163 
78 166 
78 168 
78 170 
78 171 
78 173 
78 176 
79 80 
79 89 
79 91 
79 93 
79 95 
79 97 
79 100 
79 101 
79 104 
79 106 
79 107 
79 110 
79 112 
79 114 
79 115 
79 118 
79 119 
79 122 
79 123 
79 126 
79 128 
79 129 
79 132 
79 134 
79 135 
79 137 
79 139 
79 142 
79 144 
79 146 
79 148 
79 149 
79 152 
79 153 
79 155 
79 158 
79 160 
79 161 
79 164 
79 166 
79 167 
79 169 
79 171 
79 174 
79 176 
80 90 
80 92 
80 94 
80 96 
80 98 
80 99 
80 102 
80 103 
80 105 
80 108 
80 109 
80 111 
80 113 
80 116 
80 117 
80 120 
80 121 
80 124 
80 125 
80 127 
80 130 
80 131 
80 133 
80 136 
80 138 
80 140 
80 141 
80 143 
80 145 
80 147 
80 150 
80 151 
80 154 
80 156 
80 157 
80 159 
80 162 
80 163 
80 165 
80 168 
80 170 
80 172 
80 173 
80 175 
81 82 
81 90 
81 91 
81 93 
81 95 
81 97 
81 99 
81 102 
81 103 
81 105 
81 107 
81 110 
81 111 
81 114 
81 115 
81 118 
81 120 
81 122 
81 124 
81 126 
81 127 
81 130 
81 132 
81 133 
81 136 
81 137 
81 140 
81 142 
81 143 
81 145 
81 147 
81 149 
81 152 
81 154 
81 156 
81 158 
81 160 
81 161 
81 163 
81 166 
81 168 
81 169 
81 172 
81 173 
81 176 
82 89 
82 92 
82 94 
82 96 
82 98 
82 100 
82 101 
82 104 
82 106 
82 108 
82 109 
82 112 
82 113 
82 116 
82 117 
82 119 
82 121 
82 123 
82 125 
82 128 
82 129 
82 131 
82 134 
82 135 
82 138 
82 139 
82 141 
82 144 
82 146 
82 148 
82 150 
82 151 
82 153 
82 155 
82 157 
82 159 
82 162 
82 164 
82 165 
82 167 
82 170 
82 171 
82 174 
82 175 
83 84 
83 90 
83 91 
83 94 
83 96 
83 97 
83 100 
83 102 
83 104 
83 105 
83 107 
83 109 
83 111 
83 114 
83 115 
83 117 
83 119 
83 122 
83 123 
83 126 
83 127 
83 130 
83 132 
83 133 
83 135 
83 138 
83 140 
83 142 
83 143 
83 146 
83 148 
83 149 
83 151 
83 154 
83 155 
83 157 
83 159 
83 162 
83 164 
83 165 
83 167 
83 170 
83 172 
83 174 
83 176 
84 89 
84 92 
84 93 
84 95 
84 98 
84 99 
84 101 
84 103 
84 106 
84 108 
84 110 
84 112 
84 113 
84 116 
84 118 
84 120 
84 121 
84 124 
84 125 
84 128 
84 129 
84 131 
84 134 
84 136 
84 137 
84 139 
84 141 
84 144 
84 145 
84 147 
84 150 
84 152 
84 153 
84 156 
84 158 
84 160 
84 161 
84 163 
84 166 
84 168 
84 169 
84 171 
84 173 
84 175 
85 86 
85 90 
85 91 
85 94 
85 96 
85 98 
85 100 
85 101 
85 104 
85 105 
85 108 
85 110 
85 111 
85 114 
85 115 
85 118 
85 120 
85 121 
85 123 
85 125 
85 127 
85 130 
85 131 
85 134 
85 136 
85 137 
85 139 
85 142 
85 144 
85 145 
85 148 
85 150 
85 151 
85 154 
85 155 
85 157 
85 160 
85 161 
85 163 
85 166 
85 167 
85 170 
85 171 
85 173 
85 176 
86 89 
86 92 
86 93 
86 95 
86 97 
86 99 
86 102 
86 103 
86 106 
86 107 
86 109 
86 112 
86 113 
86 116 
86 117 
86 119 
86 122 
86 124 
86 126 
86 128 
86 129 
86 132 
86 133 
86 135 
86 138 
86 140 
86 141 
86 143 
86 146 
86 147 
86 149 
86 152 
86 153 
86 156 
86 158 
86 159 
86 162 
86 164 
86 165 
86 168 
86 169 
86 172 
86 174 
86 175 
87 88 
87 89 
87 92 
87 93 
87 96 
87 98 
87 100 
87 102 
87 104 
87 106 
87 108 
87 109 
87 111 
87 114 
87 116 
87 118 
87 120 
87 121 
87 124 
87 126 
87 127 
87 129 
87 131 
87 133 
87 135 
87 137 
87 140 
87 141 
87 143 
87 146 
87 148 
87 149 
87 152 
87 154 
87 155 
87 157 
87 159 
87 161 
87 163 
87 166 
87 168 
87 169 
87 171 
87 174 
87 176 
88 90 
88 91 
88 94 
88 95 
88 97 
88 99 
88 101 
88 103 
88 105 
88 107 
88 110 
88 112 
88 113 
88 115 
88 117 
88 119 
88 122 
88 123 
88 125 
88 128 
88 130 
88 132 
88 134 
88 136 
88 138 
88 139 
88 142 
88 144 
88 145 
88 147 
88 150 
88 151 
88 153 
88 156 
88 158 
88 160 
88 162 
88 164 
88 165 
88 167 
88 170 
88 172 
88 173 
88 175 
89 90 
91 92 
93 94 
95 96 
97 98 
99 100 
101 102 
103 104 
105 106 
107 108 
109 110 
111 112 
113 114 
115 116 
117 118 
119 120 
121 122 
123 124 
125 126 
127 128 
129 130 
131 132 
133 134 
135 136 
137 138 
139 140 
141 142 
143 144 
145 146 
147 148 
149 150 
151 152 
153 154 
155 156 
157 158 
159 160 
161 162 
163 164 
165 166 
167 168 
169 170 
171 172 
173 174 
175 176 
